instances/project.5.dat
n = 11;


p =
  [
    [ 58	18	13	5	0	6	0	0	0	0	0	]
    [ 75	9	4	4	4	0	4	0	0	0	0	]
    [ 29	21	24	8	18	0	0	0	0	0	0	]
    [ 58	24	8	7	3	0	0	0	0	0	0	]
    [ 43	45	12	0	0	0	0	0	0	0	0	]
    [ 1	17	36	20	3	13	10	0	0	0	0	]
    [ 24	71	5	0	0	0	0	0	0	0	0	]
    [ 87	8	1	1	0	3	0	0	0	0	0	]
    [ 56	39	3	2	0	0	0	0	0	0	0	]
    [ 81	0	3	12	2	1	0	1	0	0	0	]
    [ 66	6	6	19	0	0	1	1	1	0	0	]
  ];

