instances/project.5.sol
OBJECTIVE: 242

Slot 1
1 white, 9 black
6 white, 2 black
4 white, 3 black
5 white, 11 black
10 white, 7 black

Slot 2
2 white, 1 black
8 white, 3 black
4 white, 11 black
10 white, 5 black
9 white, 6 black

Slot 3
5 white, 1 black
3 white, 2 black
8 white, 4 black
11 white, 7 black
10 white, 9 black

Slot 4
1 white, 7 black
2 white, 8 black
6 white, 3 black
4 white, 10 black
9 white, 5 black

Slot 5
4 white, 1 black
5 white, 2 black
7 white, 6 black
10 white, 8 black
11 white, 9 black

Slot 6
2 white, 11 black
3 white, 10 black
5 white, 4 black
8 white, 6 black
9 white, 7 black

Slot 7
1 white, 11 black
5 white, 3 black
7 white, 4 black
10 white, 6 black
9 white, 8 black

Slot 8
1 white, 8 black
2 white, 9 black
3 white, 11 black
6 white, 4 black
7 white, 5 black

Slot 9
3 white, 1 black
2 white, 10 black
9 white, 4 black
11 white, 6 black
8 white, 7 black

Slot 10
1 white, 10 black
4 white, 2 black
7 white, 3 black
6 white, 5 black
11 white, 8 black

Slot 11
6 white, 1 black
7 white, 2 black
3 white, 9 black
8 white, 5 black
11 white, 10 black




